PARAMETER_FILE = even/LKH_uncomplete_graph/x10/seg/par/random172.par
PROBLEM_FILE = even/LKH_uncomplete_graph/x10/seg/mat/random172.tsp
Successes/Runs = 0/10
Cost.min = 967, Cost.avg = 967.00, Cost.max = 967
Gap.min = 0.0000%, Gap.avg = 0.0000%, Gap.max = 0.0000%
Trials.min = 1000, Trials.avg = 1000.0, Trials.max = 1000
Time.min = 1.07 sec., Time.avg = 1.19 sec., Time.max = 1.32 sec.
Time.total = 12.04 sec.
请按任意键继续. . . 
